c
c start with comments
c
p cnf 44 26
-24 27 0
41 -22 0
-12 24 0
-29 -41 5 0
45 47 -8 -23 -38 0
18 13 0
9 7 0
35 36 0
-37 -40 15 14 0
-38 -3 26 26 14 -35 0
44 -7 39 0
5 1 8 0
-38 22 -46 0
-7 -28 -25 -21 -45 0
-21 45 -4 0
-39 -1 0
-48 29 0
-11 12 8 17 0
17 47 11 -29 0
42 2 48 0
43 4 0
-15 -21 -10 6 -45 5 0
-34 -2 -2 0
-7 6 2 0
-5 -40 -19 -27 0
-30 -37 6 -29 32 0